Maximize
  - 2.3708895732398 edge_0_2_0_0 - 1.601904290749 edge_0_3_0_0
   - 2.951159933442 edge_0_4_0_0 - 2.9011612966394 edge_0_5_0_0
   - 2.933398429949 edge_0_6_0_0 + 0.14501509882713 edge_0_7_0_0
   - 2.48711 edge_0_9_0_0 - 3.979696696849 edge_0_13_0_0
   - 3.035290226334 edge_0_16_0_0 - 0.99478560061105 edge_0_17_0_0
   - 2.70978 edge_0_18_0_0 + 2.43337654183028 edge_2_3_0_0
   + 2.58469860426213 edge_2_4_0_0 + 1.424822552565894 edge_2_5_0_0
   + 2.435506744639707 edge_2_6_0_0 + 1.5367098155948 edge_2_7_0_0
   + 0.00762404173942828 edge_2_8_0_0 + 0.47643191424224 edge_2_9_0_0
   + 1.554103580377805 edge_2_10_0_0 + 1.597742351202895 edge_2_11_0_0
   + 0.1676198407610167 edge_2_13_0_0 - 0.7088036221554951 edge_2_14_0_0
   - 0.146213412572261 edge_2_15_0_0 + 0.1336889438506248 edge_2_16_0_0
   + 0.2055800544571391 edge_2_17_0_0 + 0.187699966214 edge_2_18_0_0
   + 1.828238683667378 edge_2_19_0_0 - 0.2317944167151975 edge_3_2_0_0
   - 0.1667105176730712 edge_3_4_0_0 + 0.1207155950833099 edge_3_6_0_0
   + 1.588317491492495 edge_4_2_0_0 + 3.470179602104974 edge_4_3_0_0
   + 1.118240090353503 edge_4_5_0_0 + 3.229186674542789 edge_4_6_0_0
   + 0.8072666609478599 edge_4_7_0_0 + 1.018649662245387 edge_4_8_0_0
   + 0.8044236621419201 edge_4_9_0_0 + 2.170083142518097 edge_4_10_0_0
   + 2.909328892564204 edge_4_11_0_0 - 0.1045108693612865 edge_4_13_0_0
   - 0.5430839552099387 edge_4_15_0_0 + 2.418740681005629 edge_4_16_0_0
   + 1.440998574727045 edge_4_17_0_0 + 0.3541578127567443 edge_4_18_0_0
   + 1.101210365081579 edge_4_19_0_0 - 0.8832621896528773 edge_5_2_0_0
   - 0.2018961193863099 edge_5_3_0_0 - 0.4298190692558787 edge_5_4_0_0
   + 1.575213970588477 edge_5_6_0_0 - 0.20723983951704 edge_5_7_0_0
   + 2.594103613812518 edge_6_2_0_0 + 1.400430604866986 edge_6_3_0_0
   + 1.969213810859566 edge_6_4_0_0 + 3.144992585719502 edge_6_5_0_0
   + 0.7289767414593999 edge_6_7_0_0 + 0.8782891211710953 edge_6_8_0_0
   + 1.0041855112707 edge_6_9_0_0 + 1.361998808683998 edge_6_10_0_0
   + 1.633403143609605 edge_6_11_0_0 - 0.6689364546204819 edge_6_13_0_0
   - 0.2135048250217205 edge_6_15_0_0 + 1.080433884718089 edge_6_16_0_0
   + 0.6558069626511466 edge_6_17_0_0 + 0.2858302168232692 edge_6_18_0_0
   + 0.6280010531917113 edge_6_19_0_0 + 1.339308143002695 edge_7_2_0_0
   + 0.84068542184205 edge_7_3_0_0 + 0.8481686552655873 edge_7_4_0_0
   + 0.6673514158594439 edge_7_5_0_0 + 1.513775394569998 edge_7_6_0_0
   + 1.049021532404675 edge_7_8_0_0 + 2.7166 edge_7_9_0_0
   + 1.873846518391788 edge_7_10_0_0 + 1.534361567505896 edge_7_11_0_0
   + 1.2103089954427 edge_7_13_0_0 - 0.44230016364924 edge_7_14_0_0
   + 0.5056845547592407 edge_7_15_0_0 + 1.67665210996591 edge_7_16_0_0
   + 1.727941172283243 edge_7_17_0_0 + 1.587887122131 edge_7_18_0_0
   + 3.584233462081674 edge_7_19_0_0 - 0.6108121165561203 edge_8_2_0_0
   + 0.3423519787253351 edge_8_4_0_0 + 0.0526226104054393 edge_8_6_0_0
   + 0.1342449062105922 edge_8_7_0_0 + 1.9648616533436 edge_8_9_0_0
   + 0.5857321358240947 edge_8_10_0_0 + 0.5235479388456289 edge_8_11_0_0
   - 0.5663107792696631 edge_8_13_0_0 - 0.2558919755167953 edge_8_14_0_0
   - 0.4630133407157573 edge_8_15_0_0 - 0.0856629564425551 edge_8_16_0_0
   - 0.566854200261325 edge_8_17_0_0 - 0.8654800099814001 edge_8_18_0_0
   - 0.7463394597875641 edge_8_19_0_0 - 0.5200544220786201 edge_9_2_0_0
   + 0.4825632045935084 edge_9_3_0_0 + 2.122183306820572 edge_9_4_0_0
   + 0.24814406961495 edge_9_5_0_0 + 1.567985985946059 edge_9_6_0_0
   + 0.581595 edge_9_7_0_0 + 3.463925763099058 edge_9_8_0_0
   + 1.73381379481212 edge_9_10_0_0 + 1.938347405554983 edge_9_11_0_0
   - 0.68566748963795 edge_9_12_0_0 + 0.1730198563934 edge_9_13_0_0
   - 1.6958789583468 edge_9_14_0_0 - 0.25391996268177 edge_9_15_0_0
   + 1.170166091632652 edge_9_16_0_0 + 1.239975525180519 edge_9_17_0_0
   + 0.632407 edge_9_18_0_0 + 0.9779882371686573 edge_9_19_0_0
   - 0.490460447361264 edge_10_3_0_0 - 0.7324112098281291 edge_10_5_0_0
   - 0.3799148401645281 edge_10_6_0_0 - 1.319991501051007 edge_10_7_0_0
   - 0.308407736845955 edge_10_8_0_0 - 0.3300590956356 edge_10_9_0_0
   + 0.5349958211128348 edge_10_11_0_0 + 0.2232025111803938 edge_10_15_0_0
   + 0.000418616 edge_10_16_0_0 + 0.3079204195980685 edge_10_17_0_0
   - 0.2959919842376481 edge_10_18_0_0 + 0.4627579276299141 edge_10_19_0_0
   - 1.228684191064247 edge_11_8_0_0 + 0.1501290190055608 edge_11_10_0_0
   - 0.241018095389231 edge_11_12_0_0 - 1.078304547610264 edge_11_14_0_0
   - 0.1240182509347967 edge_11_15_0_0 - 0.0830255351850959 edge_11_16_0_0
   - 0.1438403218273085 edge_11_17_0_0 - 0.3362760108035865 edge_11_18_0_0
   + 0.1051749767878495 edge_11_19_0_0 - 0.9632330849277959 edge_13_2_0_0
   - 0.9692062603788363 edge_13_3_0_0 - 2.173167283538258 edge_13_4_0_0
   - 1.212003576351497 edge_13_6_0_0 - 1.1088790796296 edge_13_7_0_0
   + 0.2200076398391074 edge_13_8_0_0 - 0.9616872017989601 edge_13_9_0_0
   + 0.1784423629588958 edge_13_10_0_0 - 0.1127633898691887 edge_13_11_0_0
   + 2.652199996373776 edge_13_12_0_0 - 0.021928948067082 edge_13_14_0_0
   + 0.0522493841741881 edge_13_15_0_0 + 2.614777045299252 edge_13_16_0_0
   + 0.3482330327819429 edge_13_17_0_0 + 0.712250848600305 edge_13_18_0_0
   + 1.3244789006816 edge_13_19_0_0 + 0.608176379433249 edge_14_15_0_0
   + 1.155957399583276 edge_14_16_0_0 + 0.2021847891998516 edge_14_17_0_0
   + 0.1858057912232321 edge_14_18_0_0 - 1.047096563794821 edge_15_2_0_0
   - 0.6946818795173471 edge_15_4_0_0 - 1.178418779107052 edge_15_6_0_0
   - 0.7989755162098491 edge_15_7_0_0 + 0.0323410254442415 edge_15_8_0_0
   - 0.48421226723716 edge_15_9_0_0 + 0.4042661154175591 edge_15_10_0_0
   - 0.0837558511531414 edge_15_14_0_0 + 0.2722405071493584 edge_15_16_0_0
   + 0.8902163975061852 edge_15_17_0_0 - 0.017085310471275 edge_15_18_0_0
   + 0.3591192570139161 edge_15_19_0_0 - 0.5889106876061199 edge_16_2_0_0
   + 0.886622864277784 edge_16_3_0_0 - 0.5831051102766091 edge_16_4_0_0
   + 0.129695265921659 edge_16_6_0_0 - 0.1425479444314482 edge_16_7_0_0
   + 0.4484558716000197 edge_16_8_0_0 - 0.0060449145249792 edge_16_9_0_0
   - 0.2392496001762956 edge_16_10_0_0 + 0.1698841856828713 edge_16_11_0_0
   + 0.6106661953581064 edge_16_12_0_0 + 0.3184176401877393 edge_16_13_0_0
   + 3.042703605525745 edge_16_14_0_0 + 3.582962811772134 edge_16_15_0_0
   + 1.162322150719077 edge_16_17_0_0 + 1.268137882206798 edge_16_18_0_0
   + 1.091066617684508 edge_16_19_0_0 - 0.2292910653533289 edge_17_2_0_0
   - 0.3475980548924122 edge_17_3_0_0 + 0.1552800017244317 edge_17_4_0_0
   - 0.3171863214043886 edge_17_5_0_0 + 0.35380360911819 edge_17_6_0_0
   + 0.2107427578985926 edge_17_7_0_0 + 0.117508657678225 edge_17_8_0_0
   + 0.28021430313177 edge_17_9_0_0 + 1.762124456304655 edge_17_10_0_0
   - 0.2318984246299559 edge_17_11_0_0 - 0.0532547113053369 edge_17_13_0_0
   - 0.606117778332697 edge_17_14_0_0 + 1.650684013485267 edge_17_15_0_0
   + 2.619672111761438 edge_17_16_0_0 + 2.829712622176489 edge_17_18_0_0
   + 1.599304806876242 edge_17_19_0_0 - 0.19336296519466 edge_18_2_0_0
   + 0.9407159248431698 edge_18_3_0_0 + 0.7559131071206117 edge_18_4_0_0
   + 0.36260015972001 edge_18_5_0_0 + 0.019557056180908 edge_18_6_0_0
   + 0.59403018237615 edge_18_7_0_0 + 0.82295643722784 edge_18_8_0_0
   + 0.748775 edge_18_9_0_0 + 0.845030037152354 edge_18_10_0_0
   + 0.83740149467978 edge_18_11_0_0 + 0.598279348263968 edge_18_12_0_0
   + 1.247249965521669 edge_18_13_0_0 + 1.466120074641716 edge_18_14_0_0
   + 1.688868996353774 edge_18_15_0_0 + 2.4479037333504 edge_18_16_0_0
   + 3.21266304663868 edge_18_17_0_0 + 2.53614103335 edge_18_19_0_0
   - 1.149345598580736 edge_19_18_0_0
Subject To
 one_parent_1: = 1
 consume_one_flow_unit_1: = 1
 one_parent_2: edge_0_2_0_0 + edge_3_2_0_0 + edge_4_2_0_0 + edge_5_2_0_0
   + edge_6_2_0_0 + edge_7_2_0_0 + edge_8_2_0_0 + edge_9_2_0_0
   + edge_13_2_0_0 + edge_15_2_0_0 + edge_16_2_0_0 + edge_17_2_0_0
   + edge_18_2_0_0 = 1
 consume_one_flow_unit_2: flow_0_2_0_0 - flow_2_3_0_0 - flow_2_4_0_0
   - flow_2_5_0_0 - flow_2_6_0_0 - flow_2_7_0_0 - flow_2_8_0_0
   - flow_2_9_0_0 - flow_2_10_0_0 - flow_2_11_0_0 - flow_2_13_0_0
   - flow_2_14_0_0 - flow_2_15_0_0 - flow_2_16_0_0 - flow_2_17_0_0
   - flow_2_18_0_0 - flow_2_19_0_0 + flow_3_2_0_0 + flow_4_2_0_0
   + flow_5_2_0_0 + flow_6_2_0_0 + flow_7_2_0_0 + flow_8_2_0_0
   + flow_9_2_0_0 + flow_13_2_0_0 + flow_15_2_0_0 + flow_16_2_0_0
   + flow_17_2_0_0 + flow_18_2_0_0 = 1
 one_parent_3: edge_0_3_0_0 + edge_2_3_0_0 + edge_4_3_0_0 + edge_5_3_0_0
   + edge_6_3_0_0 + edge_7_3_0_0 + edge_9_3_0_0 + edge_10_3_0_0
   + edge_13_3_0_0 + edge_16_3_0_0 + edge_17_3_0_0 + edge_18_3_0_0 = 1
 consume_one_flow_unit_3: flow_0_3_0_0 + flow_2_3_0_0 - flow_3_2_0_0
   - flow_3_4_0_0 - flow_3_6_0_0 + flow_4_3_0_0 + flow_5_3_0_0
   + flow_6_3_0_0 + flow_7_3_0_0 + flow_9_3_0_0 + flow_10_3_0_0
   + flow_13_3_0_0 + flow_16_3_0_0 + flow_17_3_0_0 + flow_18_3_0_0 = 1
 one_parent_4: edge_0_4_0_0 + edge_2_4_0_0 + edge_3_4_0_0 + edge_5_4_0_0
   + edge_6_4_0_0 + edge_7_4_0_0 + edge_8_4_0_0 + edge_9_4_0_0
   + edge_13_4_0_0 + edge_15_4_0_0 + edge_16_4_0_0 + edge_17_4_0_0
   + edge_18_4_0_0 = 1
 consume_one_flow_unit_4: flow_0_4_0_0 + flow_2_4_0_0 + flow_3_4_0_0
   - flow_4_2_0_0 - flow_4_3_0_0 - flow_4_5_0_0 - flow_4_6_0_0
   - flow_4_7_0_0 - flow_4_8_0_0 - flow_4_9_0_0 - flow_4_10_0_0
   - flow_4_11_0_0 - flow_4_13_0_0 - flow_4_15_0_0 - flow_4_16_0_0
   - flow_4_17_0_0 - flow_4_18_0_0 - flow_4_19_0_0 + flow_5_4_0_0
   + flow_6_4_0_0 + flow_7_4_0_0 + flow_8_4_0_0 + flow_9_4_0_0
   + flow_13_4_0_0 + flow_15_4_0_0 + flow_16_4_0_0 + flow_17_4_0_0
   + flow_18_4_0_0 = 1
 one_parent_5: edge_0_5_0_0 + edge_2_5_0_0 + edge_4_5_0_0 + edge_6_5_0_0
   + edge_7_5_0_0 + edge_9_5_0_0 + edge_10_5_0_0 + edge_17_5_0_0
   + edge_18_5_0_0 = 1
 consume_one_flow_unit_5: flow_0_5_0_0 + flow_2_5_0_0 + flow_4_5_0_0
   - flow_5_2_0_0 - flow_5_3_0_0 - flow_5_4_0_0 - flow_5_6_0_0
   - flow_5_7_0_0 + flow_6_5_0_0 + flow_7_5_0_0 + flow_9_5_0_0
   + flow_10_5_0_0 + flow_17_5_0_0 + flow_18_5_0_0 = 1
 one_parent_6: edge_0_6_0_0 + edge_2_6_0_0 + edge_3_6_0_0 + edge_4_6_0_0
   + edge_5_6_0_0 + edge_7_6_0_0 + edge_8_6_0_0 + edge_9_6_0_0
   + edge_10_6_0_0 + edge_13_6_0_0 + edge_15_6_0_0 + edge_16_6_0_0
   + edge_17_6_0_0 + edge_18_6_0_0 = 1
 consume_one_flow_unit_6: flow_0_6_0_0 + flow_2_6_0_0 + flow_3_6_0_0
   + flow_4_6_0_0 + flow_5_6_0_0 - flow_6_2_0_0 - flow_6_3_0_0
   - flow_6_4_0_0 - flow_6_5_0_0 - flow_6_7_0_0 - flow_6_8_0_0
   - flow_6_9_0_0 - flow_6_10_0_0 - flow_6_11_0_0 - flow_6_13_0_0
   - flow_6_15_0_0 - flow_6_16_0_0 - flow_6_17_0_0 - flow_6_18_0_0
   - flow_6_19_0_0 + flow_7_6_0_0 + flow_8_6_0_0 + flow_9_6_0_0
   + flow_10_6_0_0 + flow_13_6_0_0 + flow_15_6_0_0 + flow_16_6_0_0
   + flow_17_6_0_0 + flow_18_6_0_0 = 1
 one_parent_7: edge_0_7_0_0 + edge_2_7_0_0 + edge_4_7_0_0 + edge_5_7_0_0
   + edge_6_7_0_0 + edge_8_7_0_0 + edge_9_7_0_0 + edge_10_7_0_0
   + edge_13_7_0_0 + edge_15_7_0_0 + edge_16_7_0_0 + edge_17_7_0_0
   + edge_18_7_0_0 = 1
 consume_one_flow_unit_7: flow_0_7_0_0 + flow_2_7_0_0 + flow_4_7_0_0
   + flow_5_7_0_0 + flow_6_7_0_0 - flow_7_2_0_0 - flow_7_3_0_0
   - flow_7_4_0_0 - flow_7_5_0_0 - flow_7_6_0_0 - flow_7_8_0_0
   - flow_7_9_0_0 - flow_7_10_0_0 - flow_7_11_0_0 - flow_7_13_0_0
   - flow_7_14_0_0 - flow_7_15_0_0 - flow_7_16_0_0 - flow_7_17_0_0
   - flow_7_18_0_0 - flow_7_19_0_0 + flow_8_7_0_0 + flow_9_7_0_0
   + flow_10_7_0_0 + flow_13_7_0_0 + flow_15_7_0_0 + flow_16_7_0_0
   + flow_17_7_0_0 + flow_18_7_0_0 = 1
 one_parent_8: edge_2_8_0_0 + edge_4_8_0_0 + edge_6_8_0_0 + edge_7_8_0_0
   + edge_9_8_0_0 + edge_10_8_0_0 + edge_11_8_0_0 + edge_13_8_0_0
   + edge_15_8_0_0 + edge_16_8_0_0 + edge_17_8_0_0 + edge_18_8_0_0 = 1
 consume_one_flow_unit_8: flow_2_8_0_0 + flow_4_8_0_0 + flow_6_8_0_0
   + flow_7_8_0_0 - flow_8_2_0_0 - flow_8_4_0_0 - flow_8_6_0_0
   - flow_8_7_0_0 - flow_8_9_0_0 - flow_8_10_0_0 - flow_8_11_0_0
   - flow_8_13_0_0 - flow_8_14_0_0 - flow_8_15_0_0 - flow_8_16_0_0
   - flow_8_17_0_0 - flow_8_18_0_0 - flow_8_19_0_0 + flow_9_8_0_0
   + flow_10_8_0_0 + flow_11_8_0_0 + flow_13_8_0_0 + flow_15_8_0_0
   + flow_16_8_0_0 + flow_17_8_0_0 + flow_18_8_0_0 = 1
 one_parent_9: edge_0_9_0_0 + edge_2_9_0_0 + edge_4_9_0_0 + edge_6_9_0_0
   + edge_7_9_0_0 + edge_8_9_0_0 + edge_10_9_0_0 + edge_13_9_0_0
   + edge_15_9_0_0 + edge_16_9_0_0 + edge_17_9_0_0 + edge_18_9_0_0 = 1
 consume_one_flow_unit_9: flow_0_9_0_0 + flow_2_9_0_0 + flow_4_9_0_0
   + flow_6_9_0_0 + flow_7_9_0_0 + flow_8_9_0_0 - flow_9_2_0_0
   - flow_9_3_0_0 - flow_9_4_0_0 - flow_9_5_0_0 - flow_9_6_0_0
   - flow_9_7_0_0 - flow_9_8_0_0 - flow_9_10_0_0 - flow_9_11_0_0
   - flow_9_12_0_0 - flow_9_13_0_0 - flow_9_14_0_0 - flow_9_15_0_0
   - flow_9_16_0_0 - flow_9_17_0_0 - flow_9_18_0_0 - flow_9_19_0_0
   + flow_10_9_0_0 + flow_13_9_0_0 + flow_15_9_0_0 + flow_16_9_0_0
   + flow_17_9_0_0 + flow_18_9_0_0 = 1
 one_parent_10: edge_2_10_0_0 + edge_4_10_0_0 + edge_6_10_0_0
   + edge_7_10_0_0 + edge_8_10_0_0 + edge_9_10_0_0 + edge_11_10_0_0
   + edge_13_10_0_0 + edge_15_10_0_0 + edge_16_10_0_0 + edge_17_10_0_0
   + edge_18_10_0_0 = 1
 consume_one_flow_unit_10: flow_2_10_0_0 + flow_4_10_0_0 + flow_6_10_0_0
   + flow_7_10_0_0 + flow_8_10_0_0 + flow_9_10_0_0 - flow_10_3_0_0
   - flow_10_5_0_0 - flow_10_6_0_0 - flow_10_7_0_0 - flow_10_8_0_0
   - flow_10_9_0_0 - flow_10_11_0_0 - flow_10_15_0_0 - flow_10_16_0_0
   - flow_10_17_0_0 - flow_10_18_0_0 - flow_10_19_0_0 + flow_11_10_0_0
   + flow_13_10_0_0 + flow_15_10_0_0 + flow_16_10_0_0 + flow_17_10_0_0
   + flow_18_10_0_0 = 1
 one_parent_11: edge_2_11_0_0 + edge_4_11_0_0 + edge_6_11_0_0
   + edge_7_11_0_0 + edge_8_11_0_0 + edge_9_11_0_0 + edge_10_11_0_0
   + edge_13_11_0_0 + edge_16_11_0_0 + edge_17_11_0_0 + edge_18_11_0_0 = 1
 consume_one_flow_unit_11: flow_2_11_0_0 + flow_4_11_0_0 + flow_6_11_0_0
   + flow_7_11_0_0 + flow_8_11_0_0 + flow_9_11_0_0 + flow_10_11_0_0
   - flow_11_8_0_0 - flow_11_10_0_0 - flow_11_12_0_0 - flow_11_14_0_0
   - flow_11_15_0_0 - flow_11_16_0_0 - flow_11_17_0_0 - flow_11_18_0_0
   - flow_11_19_0_0 + flow_13_11_0_0 + flow_16_11_0_0 + flow_17_11_0_0
   + flow_18_11_0_0 = 1
 one_parent_12: edge_9_12_0_0 + edge_11_12_0_0 + edge_13_12_0_0
   + edge_16_12_0_0 + edge_18_12_0_0 = 1
 consume_one_flow_unit_12: flow_9_12_0_0 + flow_11_12_0_0 + flow_13_12_0_0
   + flow_16_12_0_0 + flow_18_12_0_0 = 1
 one_parent_13: edge_0_13_0_0 + edge_2_13_0_0 + edge_4_13_0_0
   + edge_6_13_0_0 + edge_7_13_0_0 + edge_8_13_0_0 + edge_9_13_0_0
   + edge_16_13_0_0 + edge_17_13_0_0 + edge_18_13_0_0 = 1
 consume_one_flow_unit_13: flow_0_13_0_0 + flow_2_13_0_0 + flow_4_13_0_0
   + flow_6_13_0_0 + flow_7_13_0_0 + flow_8_13_0_0 + flow_9_13_0_0
   - flow_13_2_0_0 - flow_13_3_0_0 - flow_13_4_0_0 - flow_13_6_0_0
   - flow_13_7_0_0 - flow_13_8_0_0 - flow_13_9_0_0 - flow_13_10_0_0
   - flow_13_11_0_0 - flow_13_12_0_0 - flow_13_14_0_0 - flow_13_15_0_0
   - flow_13_16_0_0 - flow_13_17_0_0 - flow_13_18_0_0 - flow_13_19_0_0
   + flow_16_13_0_0 + flow_17_13_0_0 + flow_18_13_0_0 = 1
 one_parent_14: edge_2_14_0_0 + edge_7_14_0_0 + edge_8_14_0_0
   + edge_9_14_0_0 + edge_11_14_0_0 + edge_13_14_0_0 + edge_15_14_0_0
   + edge_16_14_0_0 + edge_17_14_0_0 + edge_18_14_0_0 = 1
 consume_one_flow_unit_14: flow_2_14_0_0 + flow_7_14_0_0 + flow_8_14_0_0
   + flow_9_14_0_0 + flow_11_14_0_0 + flow_13_14_0_0 - flow_14_15_0_0
   - flow_14_16_0_0 - flow_14_17_0_0 - flow_14_18_0_0 + flow_15_14_0_0
   + flow_16_14_0_0 + flow_17_14_0_0 + flow_18_14_0_0 = 1
 one_parent_15: edge_2_15_0_0 + edge_4_15_0_0 + edge_6_15_0_0
   + edge_7_15_0_0 + edge_8_15_0_0 + edge_9_15_0_0 + edge_10_15_0_0
   + edge_11_15_0_0 + edge_13_15_0_0 + edge_14_15_0_0 + edge_16_15_0_0
   + edge_17_15_0_0 + edge_18_15_0_0 = 1
 consume_one_flow_unit_15: flow_2_15_0_0 + flow_4_15_0_0 + flow_6_15_0_0
   + flow_7_15_0_0 + flow_8_15_0_0 + flow_9_15_0_0 + flow_10_15_0_0
   + flow_11_15_0_0 + flow_13_15_0_0 + flow_14_15_0_0 - flow_15_2_0_0
   - flow_15_4_0_0 - flow_15_6_0_0 - flow_15_7_0_0 - flow_15_8_0_0
   - flow_15_9_0_0 - flow_15_10_0_0 - flow_15_14_0_0 - flow_15_16_0_0
   - flow_15_17_0_0 - flow_15_18_0_0 - flow_15_19_0_0 + flow_16_15_0_0
   + flow_17_15_0_0 + flow_18_15_0_0 = 1
 one_parent_16: edge_0_16_0_0 + edge_2_16_0_0 + edge_4_16_0_0
   + edge_6_16_0_0 + edge_7_16_0_0 + edge_8_16_0_0 + edge_9_16_0_0
   + edge_10_16_0_0 + edge_11_16_0_0 + edge_13_16_0_0 + edge_14_16_0_0
   + edge_15_16_0_0 + edge_17_16_0_0 + edge_18_16_0_0 = 1
 consume_one_flow_unit_16: flow_0_16_0_0 + flow_2_16_0_0 + flow_4_16_0_0
   + flow_6_16_0_0 + flow_7_16_0_0 + flow_8_16_0_0 + flow_9_16_0_0
   + flow_10_16_0_0 + flow_11_16_0_0 + flow_13_16_0_0 + flow_14_16_0_0
   + flow_15_16_0_0 - flow_16_2_0_0 - flow_16_3_0_0 - flow_16_4_0_0
   - flow_16_6_0_0 - flow_16_7_0_0 - flow_16_8_0_0 - flow_16_9_0_0
   - flow_16_10_0_0 - flow_16_11_0_0 - flow_16_12_0_0 - flow_16_13_0_0
   - flow_16_14_0_0 - flow_16_15_0_0 - flow_16_17_0_0 - flow_16_18_0_0
   - flow_16_19_0_0 + flow_17_16_0_0 + flow_18_16_0_0 = 1
 one_parent_17: edge_0_17_0_0 + edge_2_17_0_0 + edge_4_17_0_0
   + edge_6_17_0_0 + edge_7_17_0_0 + edge_8_17_0_0 + edge_9_17_0_0
   + edge_10_17_0_0 + edge_11_17_0_0 + edge_13_17_0_0 + edge_14_17_0_0
   + edge_15_17_0_0 + edge_16_17_0_0 + edge_18_17_0_0 = 1
 consume_one_flow_unit_17: flow_0_17_0_0 + flow_2_17_0_0 + flow_4_17_0_0
   + flow_6_17_0_0 + flow_7_17_0_0 + flow_8_17_0_0 + flow_9_17_0_0
   + flow_10_17_0_0 + flow_11_17_0_0 + flow_13_17_0_0 + flow_14_17_0_0
   + flow_15_17_0_0 + flow_16_17_0_0 - flow_17_2_0_0 - flow_17_3_0_0
   - flow_17_4_0_0 - flow_17_5_0_0 - flow_17_6_0_0 - flow_17_7_0_0
   - flow_17_8_0_0 - flow_17_9_0_0 - flow_17_10_0_0 - flow_17_11_0_0
   - flow_17_13_0_0 - flow_17_14_0_0 - flow_17_15_0_0 - flow_17_16_0_0
   - flow_17_18_0_0 - flow_17_19_0_0 + flow_18_17_0_0 = 1
 one_parent_18: edge_0_18_0_0 + edge_2_18_0_0 + edge_4_18_0_0
   + edge_6_18_0_0 + edge_7_18_0_0 + edge_8_18_0_0 + edge_9_18_0_0
   + edge_10_18_0_0 + edge_11_18_0_0 + edge_13_18_0_0 + edge_14_18_0_0
   + edge_15_18_0_0 + edge_16_18_0_0 + edge_17_18_0_0 + edge_19_18_0_0 = 1
 consume_one_flow_unit_18: flow_0_18_0_0 + flow_2_18_0_0 + flow_4_18_0_0
   + flow_6_18_0_0 + flow_7_18_0_0 + flow_8_18_0_0 + flow_9_18_0_0
   + flow_10_18_0_0 + flow_11_18_0_0 + flow_13_18_0_0 + flow_14_18_0_0
   + flow_15_18_0_0 + flow_16_18_0_0 + flow_17_18_0_0 - flow_18_2_0_0
   - flow_18_3_0_0 - flow_18_4_0_0 - flow_18_5_0_0 - flow_18_6_0_0
   - flow_18_7_0_0 - flow_18_8_0_0 - flow_18_9_0_0 - flow_18_10_0_0
   - flow_18_11_0_0 - flow_18_12_0_0 - flow_18_13_0_0 - flow_18_14_0_0
   - flow_18_15_0_0 - flow_18_16_0_0 - flow_18_17_0_0 - flow_18_19_0_0
   + flow_19_18_0_0 = 1
 one_parent_19: edge_2_19_0_0 + edge_4_19_0_0 + edge_6_19_0_0
   + edge_7_19_0_0 + edge_8_19_0_0 + edge_9_19_0_0 + edge_10_19_0_0
   + edge_11_19_0_0 + edge_13_19_0_0 + edge_15_19_0_0 + edge_16_19_0_0
   + edge_17_19_0_0 + edge_18_19_0_0 = 1
 consume_one_flow_unit_19: flow_2_19_0_0 + flow_4_19_0_0 + flow_6_19_0_0
   + flow_7_19_0_0 + flow_8_19_0_0 + flow_9_19_0_0 + flow_10_19_0_0
   + flow_11_19_0_0 + flow_13_19_0_0 + flow_15_19_0_0 + flow_16_19_0_0
   + flow_17_19_0_0 + flow_18_19_0_0 - flow_19_18_0_0 = 1
 root_flow: flow_0_2_0_0 + flow_0_3_0_0 + flow_0_4_0_0 + flow_0_5_0_0
   + flow_0_6_0_0 + flow_0_7_0_0 + flow_0_9_0_0 + flow_0_13_0_0
   + flow_0_16_0_0 + flow_0_17_0_0 + flow_0_18_0_0 = 19
 inactive_no_flow_0_2_0_0: flow_0_2_0_0 - 1000 edge_0_2_0_0 <= 0
 inactive_no_flow_0_3_0_0: flow_0_3_0_0 - 1000 edge_0_3_0_0 <= 0
 inactive_no_flow_0_4_0_0: flow_0_4_0_0 - 1000 edge_0_4_0_0 <= 0
 inactive_no_flow_0_5_0_0: flow_0_5_0_0 - 1000 edge_0_5_0_0 <= 0
 inactive_no_flow_0_6_0_0: flow_0_6_0_0 - 1000 edge_0_6_0_0 <= 0
 inactive_no_flow_0_7_0_0: flow_0_7_0_0 - 1000 edge_0_7_0_0 <= 0
 inactive_no_flow_0_9_0_0: flow_0_9_0_0 - 1000 edge_0_9_0_0 <= 0
 inactive_no_flow_0_13_0_0: flow_0_13_0_0 - 1000 edge_0_13_0_0 <= 0
 inactive_no_flow_0_16_0_0: flow_0_16_0_0 - 1000 edge_0_16_0_0 <= 0
 inactive_no_flow_0_17_0_0: flow_0_17_0_0 - 1000 edge_0_17_0_0 <= 0
 inactive_no_flow_0_18_0_0: flow_0_18_0_0 - 1000 edge_0_18_0_0 <= 0
 inactive_no_flow_2_3_0_0: flow_2_3_0_0 - 1000 edge_2_3_0_0 <= 0
 inactive_no_flow_2_4_0_0: flow_2_4_0_0 - 1000 edge_2_4_0_0 <= 0
 inactive_no_flow_2_5_0_0: flow_2_5_0_0 - 1000 edge_2_5_0_0 <= 0
 inactive_no_flow_2_6_0_0: flow_2_6_0_0 - 1000 edge_2_6_0_0 <= 0
 inactive_no_flow_2_7_0_0: flow_2_7_0_0 - 1000 edge_2_7_0_0 <= 0
 inactive_no_flow_2_8_0_0: flow_2_8_0_0 - 1000 edge_2_8_0_0 <= 0
 inactive_no_flow_2_9_0_0: flow_2_9_0_0 - 1000 edge_2_9_0_0 <= 0
 inactive_no_flow_2_10_0_0: flow_2_10_0_0 - 1000 edge_2_10_0_0 <= 0
 inactive_no_flow_2_11_0_0: flow_2_11_0_0 - 1000 edge_2_11_0_0 <= 0
 inactive_no_flow_2_13_0_0: flow_2_13_0_0 - 1000 edge_2_13_0_0 <= 0
 inactive_no_flow_2_14_0_0: flow_2_14_0_0 - 1000 edge_2_14_0_0 <= 0
 inactive_no_flow_2_15_0_0: flow_2_15_0_0 - 1000 edge_2_15_0_0 <= 0
 inactive_no_flow_2_16_0_0: flow_2_16_0_0 - 1000 edge_2_16_0_0 <= 0
 inactive_no_flow_2_17_0_0: flow_2_17_0_0 - 1000 edge_2_17_0_0 <= 0
 inactive_no_flow_2_18_0_0: flow_2_18_0_0 - 1000 edge_2_18_0_0 <= 0
 inactive_no_flow_2_19_0_0: flow_2_19_0_0 - 1000 edge_2_19_0_0 <= 0
 inactive_no_flow_3_2_0_0: flow_3_2_0_0 - 1000 edge_3_2_0_0 <= 0
 inactive_no_flow_3_4_0_0: flow_3_4_0_0 - 1000 edge_3_4_0_0 <= 0
 inactive_no_flow_3_6_0_0: flow_3_6_0_0 - 1000 edge_3_6_0_0 <= 0
 inactive_no_flow_4_2_0_0: flow_4_2_0_0 - 1000 edge_4_2_0_0 <= 0
 inactive_no_flow_4_3_0_0: flow_4_3_0_0 - 1000 edge_4_3_0_0 <= 0
 inactive_no_flow_4_5_0_0: flow_4_5_0_0 - 1000 edge_4_5_0_0 <= 0
 inactive_no_flow_4_6_0_0: flow_4_6_0_0 - 1000 edge_4_6_0_0 <= 0
 inactive_no_flow_4_7_0_0: flow_4_7_0_0 - 1000 edge_4_7_0_0 <= 0
 inactive_no_flow_4_8_0_0: flow_4_8_0_0 - 1000 edge_4_8_0_0 <= 0
 inactive_no_flow_4_9_0_0: flow_4_9_0_0 - 1000 edge_4_9_0_0 <= 0
 inactive_no_flow_4_10_0_0: flow_4_10_0_0 - 1000 edge_4_10_0_0 <= 0
 inactive_no_flow_4_11_0_0: flow_4_11_0_0 - 1000 edge_4_11_0_0 <= 0
 inactive_no_flow_4_13_0_0: flow_4_13_0_0 - 1000 edge_4_13_0_0 <= 0
 inactive_no_flow_4_15_0_0: flow_4_15_0_0 - 1000 edge_4_15_0_0 <= 0
 inactive_no_flow_4_16_0_0: flow_4_16_0_0 - 1000 edge_4_16_0_0 <= 0
 inactive_no_flow_4_17_0_0: flow_4_17_0_0 - 1000 edge_4_17_0_0 <= 0
 inactive_no_flow_4_18_0_0: flow_4_18_0_0 - 1000 edge_4_18_0_0 <= 0
 inactive_no_flow_4_19_0_0: flow_4_19_0_0 - 1000 edge_4_19_0_0 <= 0
 inactive_no_flow_5_2_0_0: flow_5_2_0_0 - 1000 edge_5_2_0_0 <= 0
 inactive_no_flow_5_3_0_0: flow_5_3_0_0 - 1000 edge_5_3_0_0 <= 0
 inactive_no_flow_5_4_0_0: flow_5_4_0_0 - 1000 edge_5_4_0_0 <= 0
 inactive_no_flow_5_6_0_0: flow_5_6_0_0 - 1000 edge_5_6_0_0 <= 0
 inactive_no_flow_5_7_0_0: flow_5_7_0_0 - 1000 edge_5_7_0_0 <= 0
 inactive_no_flow_6_2_0_0: flow_6_2_0_0 - 1000 edge_6_2_0_0 <= 0
 inactive_no_flow_6_3_0_0: flow_6_3_0_0 - 1000 edge_6_3_0_0 <= 0
 inactive_no_flow_6_4_0_0: flow_6_4_0_0 - 1000 edge_6_4_0_0 <= 0
 inactive_no_flow_6_5_0_0: flow_6_5_0_0 - 1000 edge_6_5_0_0 <= 0
 inactive_no_flow_6_7_0_0: flow_6_7_0_0 - 1000 edge_6_7_0_0 <= 0
 inactive_no_flow_6_8_0_0: flow_6_8_0_0 - 1000 edge_6_8_0_0 <= 0
 inactive_no_flow_6_9_0_0: flow_6_9_0_0 - 1000 edge_6_9_0_0 <= 0
 inactive_no_flow_6_10_0_0: flow_6_10_0_0 - 1000 edge_6_10_0_0 <= 0
 inactive_no_flow_6_11_0_0: flow_6_11_0_0 - 1000 edge_6_11_0_0 <= 0
 inactive_no_flow_6_13_0_0: flow_6_13_0_0 - 1000 edge_6_13_0_0 <= 0
 inactive_no_flow_6_15_0_0: flow_6_15_0_0 - 1000 edge_6_15_0_0 <= 0
 inactive_no_flow_6_16_0_0: flow_6_16_0_0 - 1000 edge_6_16_0_0 <= 0
 inactive_no_flow_6_17_0_0: flow_6_17_0_0 - 1000 edge_6_17_0_0 <= 0
 inactive_no_flow_6_18_0_0: flow_6_18_0_0 - 1000 edge_6_18_0_0 <= 0
 inactive_no_flow_6_19_0_0: flow_6_19_0_0 - 1000 edge_6_19_0_0 <= 0
 inactive_no_flow_7_2_0_0: flow_7_2_0_0 - 1000 edge_7_2_0_0 <= 0
 inactive_no_flow_7_3_0_0: flow_7_3_0_0 - 1000 edge_7_3_0_0 <= 0
 inactive_no_flow_7_4_0_0: flow_7_4_0_0 - 1000 edge_7_4_0_0 <= 0
 inactive_no_flow_7_5_0_0: flow_7_5_0_0 - 1000 edge_7_5_0_0 <= 0
 inactive_no_flow_7_6_0_0: flow_7_6_0_0 - 1000 edge_7_6_0_0 <= 0
 inactive_no_flow_7_8_0_0: flow_7_8_0_0 - 1000 edge_7_8_0_0 <= 0
 inactive_no_flow_7_9_0_0: flow_7_9_0_0 - 1000 edge_7_9_0_0 <= 0
 inactive_no_flow_7_10_0_0: flow_7_10_0_0 - 1000 edge_7_10_0_0 <= 0
 inactive_no_flow_7_11_0_0: flow_7_11_0_0 - 1000 edge_7_11_0_0 <= 0
 inactive_no_flow_7_13_0_0: flow_7_13_0_0 - 1000 edge_7_13_0_0 <= 0
 inactive_no_flow_7_14_0_0: flow_7_14_0_0 - 1000 edge_7_14_0_0 <= 0
 inactive_no_flow_7_15_0_0: flow_7_15_0_0 - 1000 edge_7_15_0_0 <= 0
 inactive_no_flow_7_16_0_0: flow_7_16_0_0 - 1000 edge_7_16_0_0 <= 0
 inactive_no_flow_7_17_0_0: flow_7_17_0_0 - 1000 edge_7_17_0_0 <= 0
 inactive_no_flow_7_18_0_0: flow_7_18_0_0 - 1000 edge_7_18_0_0 <= 0
 inactive_no_flow_7_19_0_0: flow_7_19_0_0 - 1000 edge_7_19_0_0 <= 0
 inactive_no_flow_8_2_0_0: flow_8_2_0_0 - 1000 edge_8_2_0_0 <= 0
 inactive_no_flow_8_4_0_0: flow_8_4_0_0 - 1000 edge_8_4_0_0 <= 0
 inactive_no_flow_8_6_0_0: flow_8_6_0_0 - 1000 edge_8_6_0_0 <= 0
 inactive_no_flow_8_7_0_0: flow_8_7_0_0 - 1000 edge_8_7_0_0 <= 0
 inactive_no_flow_8_9_0_0: flow_8_9_0_0 - 1000 edge_8_9_0_0 <= 0
 inactive_no_flow_8_10_0_0: flow_8_10_0_0 - 1000 edge_8_10_0_0 <= 0
 inactive_no_flow_8_11_0_0: flow_8_11_0_0 - 1000 edge_8_11_0_0 <= 0
 inactive_no_flow_8_13_0_0: flow_8_13_0_0 - 1000 edge_8_13_0_0 <= 0
 inactive_no_flow_8_14_0_0: flow_8_14_0_0 - 1000 edge_8_14_0_0 <= 0
 inactive_no_flow_8_15_0_0: flow_8_15_0_0 - 1000 edge_8_15_0_0 <= 0
 inactive_no_flow_8_16_0_0: flow_8_16_0_0 - 1000 edge_8_16_0_0 <= 0
 inactive_no_flow_8_17_0_0: flow_8_17_0_0 - 1000 edge_8_17_0_0 <= 0
 inactive_no_flow_8_18_0_0: flow_8_18_0_0 - 1000 edge_8_18_0_0 <= 0
 inactive_no_flow_8_19_0_0: flow_8_19_0_0 - 1000 edge_8_19_0_0 <= 0
 inactive_no_flow_9_2_0_0: flow_9_2_0_0 - 1000 edge_9_2_0_0 <= 0
 inactive_no_flow_9_3_0_0: flow_9_3_0_0 - 1000 edge_9_3_0_0 <= 0
 inactive_no_flow_9_4_0_0: flow_9_4_0_0 - 1000 edge_9_4_0_0 <= 0
 inactive_no_flow_9_5_0_0: flow_9_5_0_0 - 1000 edge_9_5_0_0 <= 0
 inactive_no_flow_9_6_0_0: flow_9_6_0_0 - 1000 edge_9_6_0_0 <= 0
 inactive_no_flow_9_7_0_0: flow_9_7_0_0 - 1000 edge_9_7_0_0 <= 0
 inactive_no_flow_9_8_0_0: flow_9_8_0_0 - 1000 edge_9_8_0_0 <= 0
 inactive_no_flow_9_10_0_0: flow_9_10_0_0 - 1000 edge_9_10_0_0 <= 0
 inactive_no_flow_9_11_0_0: flow_9_11_0_0 - 1000 edge_9_11_0_0 <= 0
 inactive_no_flow_9_12_0_0: flow_9_12_0_0 - 1000 edge_9_12_0_0 <= 0
 inactive_no_flow_9_13_0_0: flow_9_13_0_0 - 1000 edge_9_13_0_0 <= 0
 inactive_no_flow_9_14_0_0: flow_9_14_0_0 - 1000 edge_9_14_0_0 <= 0
 inactive_no_flow_9_15_0_0: flow_9_15_0_0 - 1000 edge_9_15_0_0 <= 0
 inactive_no_flow_9_16_0_0: flow_9_16_0_0 - 1000 edge_9_16_0_0 <= 0
 inactive_no_flow_9_17_0_0: flow_9_17_0_0 - 1000 edge_9_17_0_0 <= 0
 inactive_no_flow_9_18_0_0: flow_9_18_0_0 - 1000 edge_9_18_0_0 <= 0
 inactive_no_flow_9_19_0_0: flow_9_19_0_0 - 1000 edge_9_19_0_0 <= 0
 inactive_no_flow_10_3_0_0: flow_10_3_0_0 - 1000 edge_10_3_0_0 <= 0
 inactive_no_flow_10_5_0_0: flow_10_5_0_0 - 1000 edge_10_5_0_0 <= 0
 inactive_no_flow_10_6_0_0: flow_10_6_0_0 - 1000 edge_10_6_0_0 <= 0
 inactive_no_flow_10_7_0_0: flow_10_7_0_0 - 1000 edge_10_7_0_0 <= 0
 inactive_no_flow_10_8_0_0: flow_10_8_0_0 - 1000 edge_10_8_0_0 <= 0
 inactive_no_flow_10_9_0_0: flow_10_9_0_0 - 1000 edge_10_9_0_0 <= 0
 inactive_no_flow_10_11_0_0: flow_10_11_0_0 - 1000 edge_10_11_0_0 <= 0
 inactive_no_flow_10_15_0_0: flow_10_15_0_0 - 1000 edge_10_15_0_0 <= 0
 inactive_no_flow_10_16_0_0: flow_10_16_0_0 - 1000 edge_10_16_0_0 <= 0
 inactive_no_flow_10_17_0_0: flow_10_17_0_0 - 1000 edge_10_17_0_0 <= 0
 inactive_no_flow_10_18_0_0: flow_10_18_0_0 - 1000 edge_10_18_0_0 <= 0
 inactive_no_flow_10_19_0_0: flow_10_19_0_0 - 1000 edge_10_19_0_0 <= 0
 inactive_no_flow_11_8_0_0: flow_11_8_0_0 - 1000 edge_11_8_0_0 <= 0
 inactive_no_flow_11_10_0_0: flow_11_10_0_0 - 1000 edge_11_10_0_0 <= 0
 inactive_no_flow_11_12_0_0: flow_11_12_0_0 - 1000 edge_11_12_0_0 <= 0
 inactive_no_flow_11_14_0_0: flow_11_14_0_0 - 1000 edge_11_14_0_0 <= 0
 inactive_no_flow_11_15_0_0: flow_11_15_0_0 - 1000 edge_11_15_0_0 <= 0
 inactive_no_flow_11_16_0_0: flow_11_16_0_0 - 1000 edge_11_16_0_0 <= 0
 inactive_no_flow_11_17_0_0: flow_11_17_0_0 - 1000 edge_11_17_0_0 <= 0
 inactive_no_flow_11_18_0_0: flow_11_18_0_0 - 1000 edge_11_18_0_0 <= 0
 inactive_no_flow_11_19_0_0: flow_11_19_0_0 - 1000 edge_11_19_0_0 <= 0
 inactive_no_flow_13_2_0_0: flow_13_2_0_0 - 1000 edge_13_2_0_0 <= 0
 inactive_no_flow_13_3_0_0: flow_13_3_0_0 - 1000 edge_13_3_0_0 <= 0
 inactive_no_flow_13_4_0_0: flow_13_4_0_0 - 1000 edge_13_4_0_0 <= 0
 inactive_no_flow_13_6_0_0: flow_13_6_0_0 - 1000 edge_13_6_0_0 <= 0
 inactive_no_flow_13_7_0_0: flow_13_7_0_0 - 1000 edge_13_7_0_0 <= 0
 inactive_no_flow_13_8_0_0: flow_13_8_0_0 - 1000 edge_13_8_0_0 <= 0
 inactive_no_flow_13_9_0_0: flow_13_9_0_0 - 1000 edge_13_9_0_0 <= 0
 inactive_no_flow_13_10_0_0: flow_13_10_0_0 - 1000 edge_13_10_0_0 <= 0
 inactive_no_flow_13_11_0_0: flow_13_11_0_0 - 1000 edge_13_11_0_0 <= 0
 inactive_no_flow_13_12_0_0: flow_13_12_0_0 - 1000 edge_13_12_0_0 <= 0
 inactive_no_flow_13_14_0_0: flow_13_14_0_0 - 1000 edge_13_14_0_0 <= 0
 inactive_no_flow_13_15_0_0: flow_13_15_0_0 - 1000 edge_13_15_0_0 <= 0
 inactive_no_flow_13_16_0_0: flow_13_16_0_0 - 1000 edge_13_16_0_0 <= 0
 inactive_no_flow_13_17_0_0: flow_13_17_0_0 - 1000 edge_13_17_0_0 <= 0
 inactive_no_flow_13_18_0_0: flow_13_18_0_0 - 1000 edge_13_18_0_0 <= 0
 inactive_no_flow_13_19_0_0: flow_13_19_0_0 - 1000 edge_13_19_0_0 <= 0
 inactive_no_flow_14_15_0_0: flow_14_15_0_0 - 1000 edge_14_15_0_0 <= 0
 inactive_no_flow_14_16_0_0: flow_14_16_0_0 - 1000 edge_14_16_0_0 <= 0
 inactive_no_flow_14_17_0_0: flow_14_17_0_0 - 1000 edge_14_17_0_0 <= 0
 inactive_no_flow_14_18_0_0: flow_14_18_0_0 - 1000 edge_14_18_0_0 <= 0
 inactive_no_flow_15_2_0_0: flow_15_2_0_0 - 1000 edge_15_2_0_0 <= 0
 inactive_no_flow_15_4_0_0: flow_15_4_0_0 - 1000 edge_15_4_0_0 <= 0
 inactive_no_flow_15_6_0_0: flow_15_6_0_0 - 1000 edge_15_6_0_0 <= 0
 inactive_no_flow_15_7_0_0: flow_15_7_0_0 - 1000 edge_15_7_0_0 <= 0
 inactive_no_flow_15_8_0_0: flow_15_8_0_0 - 1000 edge_15_8_0_0 <= 0
 inactive_no_flow_15_9_0_0: flow_15_9_0_0 - 1000 edge_15_9_0_0 <= 0
 inactive_no_flow_15_10_0_0: flow_15_10_0_0 - 1000 edge_15_10_0_0 <= 0
 inactive_no_flow_15_14_0_0: flow_15_14_0_0 - 1000 edge_15_14_0_0 <= 0
 inactive_no_flow_15_16_0_0: flow_15_16_0_0 - 1000 edge_15_16_0_0 <= 0
 inactive_no_flow_15_17_0_0: flow_15_17_0_0 - 1000 edge_15_17_0_0 <= 0
 inactive_no_flow_15_18_0_0: flow_15_18_0_0 - 1000 edge_15_18_0_0 <= 0
 inactive_no_flow_15_19_0_0: flow_15_19_0_0 - 1000 edge_15_19_0_0 <= 0
 inactive_no_flow_16_2_0_0: flow_16_2_0_0 - 1000 edge_16_2_0_0 <= 0
 inactive_no_flow_16_3_0_0: flow_16_3_0_0 - 1000 edge_16_3_0_0 <= 0
 inactive_no_flow_16_4_0_0: flow_16_4_0_0 - 1000 edge_16_4_0_0 <= 0
 inactive_no_flow_16_6_0_0: flow_16_6_0_0 - 1000 edge_16_6_0_0 <= 0
 inactive_no_flow_16_7_0_0: flow_16_7_0_0 - 1000 edge_16_7_0_0 <= 0
 inactive_no_flow_16_8_0_0: flow_16_8_0_0 - 1000 edge_16_8_0_0 <= 0
 inactive_no_flow_16_9_0_0: flow_16_9_0_0 - 1000 edge_16_9_0_0 <= 0
 inactive_no_flow_16_10_0_0: flow_16_10_0_0 - 1000 edge_16_10_0_0 <= 0
 inactive_no_flow_16_11_0_0: flow_16_11_0_0 - 1000 edge_16_11_0_0 <= 0
 inactive_no_flow_16_12_0_0: flow_16_12_0_0 - 1000 edge_16_12_0_0 <= 0
 inactive_no_flow_16_13_0_0: flow_16_13_0_0 - 1000 edge_16_13_0_0 <= 0
 inactive_no_flow_16_14_0_0: flow_16_14_0_0 - 1000 edge_16_14_0_0 <= 0
 inactive_no_flow_16_15_0_0: flow_16_15_0_0 - 1000 edge_16_15_0_0 <= 0
 inactive_no_flow_16_17_0_0: flow_16_17_0_0 - 1000 edge_16_17_0_0 <= 0
 inactive_no_flow_16_18_0_0: flow_16_18_0_0 - 1000 edge_16_18_0_0 <= 0
 inactive_no_flow_16_19_0_0: flow_16_19_0_0 - 1000 edge_16_19_0_0 <= 0
 inactive_no_flow_17_2_0_0: flow_17_2_0_0 - 1000 edge_17_2_0_0 <= 0
 inactive_no_flow_17_3_0_0: flow_17_3_0_0 - 1000 edge_17_3_0_0 <= 0
 inactive_no_flow_17_4_0_0: flow_17_4_0_0 - 1000 edge_17_4_0_0 <= 0
 inactive_no_flow_17_5_0_0: flow_17_5_0_0 - 1000 edge_17_5_0_0 <= 0
 inactive_no_flow_17_6_0_0: flow_17_6_0_0 - 1000 edge_17_6_0_0 <= 0
 inactive_no_flow_17_7_0_0: flow_17_7_0_0 - 1000 edge_17_7_0_0 <= 0
 inactive_no_flow_17_8_0_0: flow_17_8_0_0 - 1000 edge_17_8_0_0 <= 0
 inactive_no_flow_17_9_0_0: flow_17_9_0_0 - 1000 edge_17_9_0_0 <= 0
 inactive_no_flow_17_10_0_0: flow_17_10_0_0 - 1000 edge_17_10_0_0 <= 0
 inactive_no_flow_17_11_0_0: flow_17_11_0_0 - 1000 edge_17_11_0_0 <= 0
 inactive_no_flow_17_13_0_0: flow_17_13_0_0 - 1000 edge_17_13_0_0 <= 0
 inactive_no_flow_17_14_0_0: flow_17_14_0_0 - 1000 edge_17_14_0_0 <= 0
 inactive_no_flow_17_15_0_0: flow_17_15_0_0 - 1000 edge_17_15_0_0 <= 0
 inactive_no_flow_17_16_0_0: flow_17_16_0_0 - 1000 edge_17_16_0_0 <= 0
 inactive_no_flow_17_18_0_0: flow_17_18_0_0 - 1000 edge_17_18_0_0 <= 0
 inactive_no_flow_17_19_0_0: flow_17_19_0_0 - 1000 edge_17_19_0_0 <= 0
 inactive_no_flow_18_2_0_0: flow_18_2_0_0 - 1000 edge_18_2_0_0 <= 0
 inactive_no_flow_18_3_0_0: flow_18_3_0_0 - 1000 edge_18_3_0_0 <= 0
 inactive_no_flow_18_4_0_0: flow_18_4_0_0 - 1000 edge_18_4_0_0 <= 0
 inactive_no_flow_18_5_0_0: flow_18_5_0_0 - 1000 edge_18_5_0_0 <= 0
 inactive_no_flow_18_6_0_0: flow_18_6_0_0 - 1000 edge_18_6_0_0 <= 0
 inactive_no_flow_18_7_0_0: flow_18_7_0_0 - 1000 edge_18_7_0_0 <= 0
 inactive_no_flow_18_8_0_0: flow_18_8_0_0 - 1000 edge_18_8_0_0 <= 0
 inactive_no_flow_18_9_0_0: flow_18_9_0_0 - 1000 edge_18_9_0_0 <= 0
 inactive_no_flow_18_10_0_0: flow_18_10_0_0 - 1000 edge_18_10_0_0 <= 0
 inactive_no_flow_18_11_0_0: flow_18_11_0_0 - 1000 edge_18_11_0_0 <= 0
 inactive_no_flow_18_12_0_0: flow_18_12_0_0 - 1000 edge_18_12_0_0 <= 0
 inactive_no_flow_18_13_0_0: flow_18_13_0_0 - 1000 edge_18_13_0_0 <= 0
 inactive_no_flow_18_14_0_0: flow_18_14_0_0 - 1000 edge_18_14_0_0 <= 0
 inactive_no_flow_18_15_0_0: flow_18_15_0_0 - 1000 edge_18_15_0_0 <= 0
 inactive_no_flow_18_16_0_0: flow_18_16_0_0 - 1000 edge_18_16_0_0 <= 0
 inactive_no_flow_18_17_0_0: flow_18_17_0_0 - 1000 edge_18_17_0_0 <= 0
 inactive_no_flow_18_19_0_0: flow_18_19_0_0 - 1000 edge_18_19_0_0 <= 0
 inactive_no_flow_19_18_0_0: flow_19_18_0_0 - 1000 edge_19_18_0_0 <= 0
Bounds
Binaries
 edge_0_2_0_0 edge_0_3_0_0 edge_0_4_0_0 edge_0_5_0_0 edge_0_6_0_0
 edge_0_7_0_0 edge_0_9_0_0 edge_0_13_0_0 edge_0_16_0_0 edge_0_17_0_0
 edge_0_18_0_0 edge_2_3_0_0 edge_2_4_0_0 edge_2_5_0_0 edge_2_6_0_0
 edge_2_7_0_0 edge_2_8_0_0 edge_2_9_0_0 edge_2_10_0_0 edge_2_11_0_0
 edge_2_13_0_0 edge_2_14_0_0 edge_2_15_0_0 edge_2_16_0_0 edge_2_17_0_0
 edge_2_18_0_0 edge_2_19_0_0 edge_3_2_0_0 edge_3_4_0_0 edge_3_6_0_0
 edge_4_2_0_0 edge_4_3_0_0 edge_4_5_0_0 edge_4_6_0_0 edge_4_7_0_0
 edge_4_8_0_0 edge_4_9_0_0 edge_4_10_0_0 edge_4_11_0_0 edge_4_13_0_0
 edge_4_15_0_0 edge_4_16_0_0 edge_4_17_0_0 edge_4_18_0_0 edge_4_19_0_0
 edge_5_2_0_0 edge_5_3_0_0 edge_5_4_0_0 edge_5_6_0_0 edge_5_7_0_0
 edge_6_2_0_0 edge_6_3_0_0 edge_6_4_0_0 edge_6_5_0_0 edge_6_7_0_0
 edge_6_8_0_0 edge_6_9_0_0 edge_6_10_0_0 edge_6_11_0_0 edge_6_13_0_0
 edge_6_15_0_0 edge_6_16_0_0 edge_6_17_0_0 edge_6_18_0_0 edge_6_19_0_0
 edge_7_2_0_0 edge_7_3_0_0 edge_7_4_0_0 edge_7_5_0_0 edge_7_6_0_0
 edge_7_8_0_0 edge_7_9_0_0 edge_7_10_0_0 edge_7_11_0_0 edge_7_13_0_0
 edge_7_14_0_0 edge_7_15_0_0 edge_7_16_0_0 edge_7_17_0_0 edge_7_18_0_0
 edge_7_19_0_0 edge_8_2_0_0 edge_8_4_0_0 edge_8_6_0_0 edge_8_7_0_0
 edge_8_9_0_0 edge_8_10_0_0 edge_8_11_0_0 edge_8_13_0_0 edge_8_14_0_0
 edge_8_15_0_0 edge_8_16_0_0 edge_8_17_0_0 edge_8_18_0_0 edge_8_19_0_0
 edge_9_2_0_0 edge_9_3_0_0 edge_9_4_0_0 edge_9_5_0_0 edge_9_6_0_0
 edge_9_7_0_0 edge_9_8_0_0 edge_9_10_0_0 edge_9_11_0_0 edge_9_12_0_0
 edge_9_13_0_0 edge_9_14_0_0 edge_9_15_0_0 edge_9_16_0_0 edge_9_17_0_0
 edge_9_18_0_0 edge_9_19_0_0 edge_10_3_0_0 edge_10_5_0_0 edge_10_6_0_0
 edge_10_7_0_0 edge_10_8_0_0 edge_10_9_0_0 edge_10_11_0_0 edge_10_15_0_0
 edge_10_16_0_0 edge_10_17_0_0 edge_10_18_0_0 edge_10_19_0_0 edge_11_8_0_0
 edge_11_10_0_0 edge_11_12_0_0 edge_11_14_0_0 edge_11_15_0_0 edge_11_16_0_0
 edge_11_17_0_0 edge_11_18_0_0 edge_11_19_0_0 edge_13_2_0_0 edge_13_3_0_0
 edge_13_4_0_0 edge_13_6_0_0 edge_13_7_0_0 edge_13_8_0_0 edge_13_9_0_0
 edge_13_10_0_0 edge_13_11_0_0 edge_13_12_0_0 edge_13_14_0_0 edge_13_15_0_0
 edge_13_16_0_0 edge_13_17_0_0 edge_13_18_0_0 edge_13_19_0_0 edge_14_15_0_0
 edge_14_16_0_0 edge_14_17_0_0 edge_14_18_0_0 edge_15_2_0_0 edge_15_4_0_0
 edge_15_6_0_0 edge_15_7_0_0 edge_15_8_0_0 edge_15_9_0_0 edge_15_10_0_0
 edge_15_14_0_0 edge_15_16_0_0 edge_15_17_0_0 edge_15_18_0_0 edge_15_19_0_0
 edge_16_2_0_0 edge_16_3_0_0 edge_16_4_0_0 edge_16_6_0_0 edge_16_7_0_0
 edge_16_8_0_0 edge_16_9_0_0 edge_16_10_0_0 edge_16_11_0_0 edge_16_12_0_0
 edge_16_13_0_0 edge_16_14_0_0 edge_16_15_0_0 edge_16_17_0_0 edge_16_18_0_0
 edge_16_19_0_0 edge_17_2_0_0 edge_17_3_0_0 edge_17_4_0_0 edge_17_5_0_0
 edge_17_6_0_0 edge_17_7_0_0 edge_17_8_0_0 edge_17_9_0_0 edge_17_10_0_0
 edge_17_11_0_0 edge_17_13_0_0 edge_17_14_0_0 edge_17_15_0_0 edge_17_16_0_0
 edge_17_18_0_0 edge_17_19_0_0 edge_18_2_0_0 edge_18_3_0_0 edge_18_4_0_0
 edge_18_5_0_0 edge_18_6_0_0 edge_18_7_0_0 edge_18_8_0_0 edge_18_9_0_0
 edge_18_10_0_0 edge_18_11_0_0 edge_18_12_0_0 edge_18_13_0_0 edge_18_14_0_0
 edge_18_15_0_0 edge_18_16_0_0 edge_18_17_0_0 edge_18_19_0_0 edge_19_18_0_0
End
